1605390
22 48 4353
48 18 8895
18 53 26950
53 12 13536
12 46 9114
46 3 12782
3 19 4440
19 64 13332
64 47 17626
47 1 7938
1 62 25131
62 15 14689
15 58 10880
58 35 8563
35 7 11459
7 14 6874
14 57 6904
57 8 1777
8 16 5356
16 26 1445
26 44 8214
44 67 50028
67 34 19070
34 50 8926
50 38 11004
38 61 8740
61 36 30446
36 52 6554
52 49 48925
49 27 10810
27 43 76431
43 13 62420
13 9 62052
9 17 28652
17 56 27906
56 32 88918
32 51 101509
51 21 46274
21 30 39447
30 42 116978
42 45 69394
45 33 36286
33 54 20835
54 25 61621
25 65 57991
65 10 13370
10 63 35955
63 66 14572
66 6 19183
6 37 28523
37 20 42598
20 2 17216
2 60 12947
60 23 5437
23 0 15310
0 11 10465
11 41 4831
41 31 5759
31 55 1427
55 39 3489
39 4 3130
4 28 9526
28 24 9940
24 29 1249
29 40 5056
40 5 10602
5 59 15832
59 22 7498
